(set-logic QF_BV)
(declare-fun x0 () (_ BitVec 32))
(declare-fun x1 () Bool)
(declare-fun x2 () (_ BitVec 16))
(declare-fun x3 () Bool)
(assert (let ((?v_46 (bvadd (_ bv0 32) (bvsub (bvadd x0 ((_ zero_extend 16) x2)) (_ bv0 32))))) (let ((?v_2 (bvadd ?v_46 (_ bv4 32)))) (let ((?v_31 (bvadd ?v_2 (_ bv0 32)))) (let ((?v_3 (bvadd ?v_31 (_ bv4 32)))) (let ((?v_22 (bvadd ?v_3 (_ bv0 32)))) (let ((?v_4 (bvadd ?v_22 (_ bv4 32)))) (let ((?v_13 (bvadd ?v_4 (_ bv0 32)))) (let ((?v_5 (bvadd ?v_13 (_ bv4 32)))) (let ((?v_7 (bvadd ?v_5 (_ bv0 32)))) (let ((?v_10 (bvadd ?v_7 (_ bv4 32)))) (let ((?v_17 (bvadd ?v_10 (_ bv0 32)))) (let ((?v_20 (bvadd ?v_17 (_ bv4 32)))) (let ((?v_26 (bvadd ?v_20 (_ bv0 32)))) (let ((?v_29 (bvadd ?v_26 (_ bv4 32)))) (let ((?v_35 (bvadd ?v_29 (_ bv0 32)))) (let ((?v_44 (bvadd ?v_35 (_ bv4 32)))) (let ((?v_62 (bvadd ?v_44 (_ bv0 32)))) (let ((?v_79 (bvadd ?v_62 (_ bv4 32)))) (let ((?v_105 (bvadd ?v_79 (_ bv0 32)))) (let ((?v_127 (bvadd ?v_105 (_ bv4 32)))) (let ((?v_138 (bvadd ?v_127 (_ bv0 32)))) (let ((?v_146 (bvadd ?v_138 (_ bv0 32)))) (let ((?v_147 (bvsub ?v_146 (_ bv0 32)))) (and true x3 true x1 true (= (_ bv0 32) ?v_147) true)))))))))))))))))))))))))
(check-sat)
(exit)
